NAME          ClpDefau  FREE
ROWS
 N  OBJROW
 L  ZMUNI1_PCT
 L  ZMUNI2_PCT
 L  ZMUNI3_PCT
 L  ZMUNI4_PCT
 L  ZMUNI5_PCT
 L  ZMUNI6_PCT
 L  ZMUNI7_PCT
 L  ZMUNI8_PCT
 L  ZMUNI9_PCT
COLUMNS
    QMUNI1 OBJROW 1.          
    QMUNI1 ZMUNI1_PCT 28038.02491 
    QMUNI1 ZMUNI2_PCT 1821.4226   
    QMUNI1 ZMUNI3_PCT 4219.4366   
    QMUNI1 ZMUNI4_PCT 2997.87521  
    QMUNI1 ZMUNI5_PCT  -279.3312  
    QMUNI1 ZMUNI6_PCT  -62.17957  
    QMUNI1 ZMUNI7_PCT 1401.1383   
    QMUNI1 ZMUNI8_PCT 1239.0137   
    QMUNI1 ZMUNI9_PCT 634.5749    
    QMUNI2 OBJROW 1.          
    QMUNI2 ZMUNI1_PCT 1770.78247  
    QMUNI2 ZMUNI2_PCT 33022.88053 
    QMUNI2 ZMUNI3_PCT 2617.4545   
    QMUNI2 ZMUNI4_PCT 2695.36972  
    QMUNI2 ZMUNI5_PCT  -5.5313    
    QMUNI2 ZMUNI6_PCT 53.50113    
    QMUNI2 ZMUNI7_PCT 790.2146    
    QMUNI2 ZMUNI8_PCT 1101.3031   
    QMUNI2 ZMUNI9_PCT 1094.8182   
    QMUNI3 OBJROW 1.          
    QMUNI3 ZMUNI1_PCT 4380.22614  
    QMUNI3 ZMUNI2_PCT 2740.6692   
    QMUNI3 ZMUNI3_PCT 29727.8404  
    QMUNI3 ZMUNI4_PCT 5140.59067  
    QMUNI3 ZMUNI5_PCT 175.19      
    QMUNI3 ZMUNI6_PCT 342.27371   
    QMUNI3 ZMUNI7_PCT 1571.846    
    QMUNI3 ZMUNI8_PCT 1502.9907   
    QMUNI3 ZMUNI9_PCT 775.6234    
    QMUNI4 OBJROW 1.          
    QMUNI4 ZMUNI1_PCT 3424.07227  
    QMUNI4 ZMUNI2_PCT 3131.8664   
    QMUNI4 ZMUNI3_PCT 5625.6294   
    QMUNI4 ZMUNI4_PCT 99273.30015 
    QMUNI4 ZMUNI5_PCT 187.4924    
    QMUNI4 ZMUNI6_PCT 307.94144   
    QMUNI4 ZMUNI7_PCT 1275.444    
    QMUNI4 ZMUNI8_PCT 1338.9588   
    QMUNI4 ZMUNI9_PCT 934.7916    
    QMUNI5 OBJROW 1.          
    QMUNI5 ZMUNI1_PCT 88.69171    
    QMUNI5 ZMUNI2_PCT 48.8281     
    QMUNI5 ZMUNI3_PCT 57.6973     
    QMUNI5 ZMUNI4_PCT 30.13611    
    QMUNI5 ZMUNI5_PCT 32184.6962  
    QMUNI5 ZMUNI6_PCT 2579.87976  
    QMUNI5 ZMUNI7_PCT 124.7406    
    QMUNI5 ZMUNI8_PCT 61.6074     
    QMUNI5 ZMUNI9_PCT 40.9127     
    QMUNI6 OBJROW 1.          
    QMUNI6 ZMUNI1_PCT 836.84922   
    QMUNI6 ZMUNI2_PCT 679.4929    
    QMUNI6 ZMUNI3_PCT 760.746     
    QMUNI6 ZMUNI4_PCT 618.93463   
    QMUNI6 ZMUNI5_PCT 3213.8825   
    QMUNI6 ZMUNI6_PCT 31580.92499 
    QMUNI6 ZMUNI7_PCT 1253.7003   
    QMUNI6 ZMUNI8_PCT 1201.0575   
    QMUNI6 ZMUNI9_PCT 1303.6728   
    QMUNI7 OBJROW 1.          
    QMUNI7 ZMUNI1_PCT 1905.72739  
    QMUNI7 ZMUNI2_PCT 1296.2341   
    QMUNI7 ZMUNI3_PCT 1727.1995   
    QMUNI7 ZMUNI4_PCT 1335.71625  
    QMUNI7 ZMUNI5_PCT 557.0412    
    QMUNI7 ZMUNI6_PCT 807.47604   
    QMUNI7 ZMUNI7_PCT 28204.3457  
    QMUNI7 ZMUNI8_PCT 3149.2234   
    QMUNI7 ZMUNI9_PCT 1736.3549   
    QMUNI8 OBJROW 1.          
    QMUNI8 ZMUNI1_PCT 1431.65589  
    QMUNI8 ZMUNI2_PCT 1222.0382   
    QMUNI8 ZMUNI3_PCT 1451.7784   
    QMUNI8 ZMUNI4_PCT 1141.83426  
    QMUNI8 ZMUNI5_PCT 257.0153    
    QMUNI8 ZMUNI6_PCT 397.39609   
    QMUNI8 ZMUNI7_PCT 2429.39     
    QMUNI8 ZMUNI8_PCT 26452.2553  
    QMUNI8 ZMUNI9_PCT 1439.3807   
    QMUNI9 OBJROW 1.          
    QMUNI9 ZMUNI1_PCT 356.57883   
    QMUNI9 ZMUNI2_PCT 716.2094    
    QMUNI9 ZMUNI3_PCT 463.1996    
    QMUNI9 ZMUNI4_PCT 405.59769   
    QMUNI9 ZMUNI5_PCT  -464.7255  
    QMUNI9 ZMUNI6_PCT  -356.76956 
    QMUNI9 ZMUNI7_PCT 351.9058    
    QMUNI9 ZMUNI8_PCT 904.8462    
    QMUNI9 ZMUNI9_PCT 24186.5159  
RHS
    RHS ZMUNI1_PCT 6.14788147  
    RHS ZMUNI2_PCT 4.0189760373
    RHS ZMUNI3_PCT 2.1570343744
    RHS ZMUNI4_PCT  -2.32105853
    RHS ZMUNI5_PCT 3.3375847761
    RHS ZMUNI6_PCT 4.4651715493
    RHS ZMUNI7_PCT  -0.43696462
    RHS ZMUNI8_PCT 0.728790371 
    RHS ZMUNI9_PCT 2.4185334782
BOUNDS
 LO BOUND QMUNI1 -0.001097967
 UP BOUND QMUNI1      1.1e+10
 LO BOUND QMUNI2 -0.000825801
 UP BOUND QMUNI2      1.1e+10
 LO BOUND QMUNI3 -0.000839107
 UP BOUND QMUNI3      1.1e+10
 LO BOUND QMUNI4 -0.000414319
 UP BOUND QMUNI4      1.1e+10
 LO BOUND QMUNI5 -0.000704288
 UP BOUND QMUNI5      1.1e+10
 LO BOUND QMUNI6 -0.000828994
 UP BOUND QMUNI6      1.1e+10
 LO BOUND QMUNI7 -0.000528123
 UP BOUND QMUNI7      1.1e+10
 LO BOUND QMUNI8 -0.000648973
 UP BOUND QMUNI8      1.1e+10
 LO BOUND QMUNI9 -0.000806713
 UP BOUND QMUNI9      1.1e+10
ENDATA
